200
3
85, 26, 48, 21, 22, 95, 43, 45, 55, 52, 11, 5, 7, 3, 10, 30, 35, 20, 15, 61, 2, 4, 1, 8, 9, 12, 23, 31, 50, 70
79, 32, 47, 18, 26, 85, 33, 40, 45, 59, 13, 5, 2, 3, 15, 20, 10, 11, 12, 13, 1, 4, 6, 7, 14, 27, 35, 50, 9, 21
1, 1, 2, 1, 2, 1, 1, 2, 2, 2, 1, 1, 2, 3, 3, 3, 3, 3, 1, 2, 3, 3, 1, 2, 2, 1, 3, 1, 3, 3